echo
start flop
memory 2000 mb
geometry noautoz
  load format xyz "ZSM-5-Si34-O090-H44-Wat08.xyz"
end
set geometry:actlist 109:123
basis 
  * library cc-pVDZ
end
dft
  direct
  xc pbe96
  maxiter 200
end
driver
  maxiter 300
end
task dft energy
#task dft optimize
