echo
start flop
memory 2000 mb
geometry noautoz
  load format xyz "ZSM-5-Si08-O025-H18-Wat08.xyz"
end
set geometry:actlist 52:63
basis 
  * library 6-31g*
end
dft
  direct
  xc pbe96
  maxiter 200
end
driver
  maxiter 200
end
task dft optimize
