echo
start flop
memory 2000 mb
geometry noautoz
  load format xyz "ZSM-5-Si05-O016-H12-Wat03.xyz"
end
set geometry:actlist 34:42
basis 
  * library 6-31g*
end
dft
  direct
  xc pbe96
  maxiter 200
end
driver
  maxiter 200
end
task dft optimize
