echo
start flop
memory 2000 mb
geometry noautoz
  load format xyz "ZSM-5-Si10-O030-H20-Wat04.xyz"
end
set geometry:actlist 61:72
basis 
  * library 6-31g*
end
dft
  direct
  xc pbe96
  maxiter 200
end
driver
  maxiter 300
end
task dft optimize
