echo
start flop
memory 2000 mb
geometry noautoz
  load format xyz "ZSM-5-Si23-O061-H30-Wat10.xyz"
end
set geometry:actlist 115:144
basis 
  * library 6-31g*
end
dft
  direct
  xc pbe96
  maxiter 200
end
driver
  maxiter 300
end
task dft optimize
